NAME : Random_TSP_Instance
TYPE : TSP
DIMENSION : 10
EDGE_WEIGHT_TYPE : EUC_2D
NODE_COORD_SECTION
1 1.566640 3.231800
2 3.048480 8.113846
3 0.787566 8.464842
4 1.608937 4.147141
5 5.498340 5.540327
6 0.084560 2.455717
7 2.037069 7.684567
8 9.783287 0.184189
9 0.587871 1.133353
10 4.387757 0.204316
EOF
